13 46
1 2 1
1 3 1
1 4 1
1 5 0
1 6 1
1 7 1
1 8 1
1 9 0
1 10 1
1 11 1
1 12 1
1 13 0
2 3 0
2 4 1
2 5 1
2 6 0
2 7 1
2 8 1
2 9 1
2 10 1
2 11 1
2 12 1
2 13 0
3 4 0
3 5 0
3 6 1
3 7 1
3 8 0
3 9 1
3 10 0
3 11 1
3 12 0
3 13 1
4 5 1
4 6 1
4 7 1
4 8 1
4 9 0
4 10 1
4 11 0
4 12 1
4 13 1
5 6 1
5 7 1
5 8 0
5 9 0
5 10 0
5 11 0
5 12 0
5 13 0
6 7 1
6 8 1
6 9 0
6 10 1
6 11 1
6 12 1
6 13 1
7 8 1
7 9 0
7 10 0
7 11 0
7 12 1
7 13 0
8 9 0
8 10 0
8 11 0
8 12 0
8 13 1
9 10 1
9 11 0
9 12 1
9 13 0
10 11 1
10 12 1
10 13 1
11 12 0
11 13 0
12 13 1
